<number of tasks>
100

<cycle time>
1000

<order strength>
0.605


<task times>
1 173
2 133
3 116
4 129
5 33
6 32
7 164
8 150
9 79
10 318
11 108
12 248
13 114
14 146
15 214
16 72
17 212
18 178
19 104
20 102
21 219
22 242
23 184
24 22
25 92
26 41
27 124
28 212
29 224
30 41
31 77
32 236
33 190
34 236
35 77
36 155
37 148
38 147
39 102
40 95
41 43
42 152
43 25
44 140
45 77
46 171
47 155
48 144
49 81
50 57
51 150
52 24
53 37
54 115
55 255
56 90
57 166
58 67
59 295
60 147
61 81
62 166
63 93
64 74
65 48
66 146
67 192
68 92
69 160
70 174
71 191
72 320
73 70
74 212
75 110
76 125
77 140
78 54
79 296
80 63
81 239
82 60
83 47
84 159
85 111
86 213
87 270
88 116
89 332
90 72
91 157
92 75
93 200
94 173
95 167
96 328
97 207
98 185
99 104
100 23

<precedence relations>
1,8
2,6
2,7
3,9
3,10
3,11
4,11
4,12
5,9
5,24
6,13
7,14
8,16
9,15
9,18
10,17
10,18
10,19
11,17
12,19
12,29
12,30
12,35
12,39
13,22
14,23
15,20
16,21
17,23
17,24
17,25
18,23
18,25
19,45
19,60
20,26
21,28
22,27
23,28
23,30
24,65
25,29
25,77
26,32
27,34
28,31
28,33
28,35
28,39
29,70
29,76
30,36
30,37
30,38
31,40
32,42
33,44
34,45
35,41
35,45
36,43
36,45
36,56
37,57
37,62
38,45
39,45
39,49
40,47
41,46
42,49
43,48
44,50
45,50
45,51
45,52
46,53
47,54
48,55
49,56
49,60
50,90
50,100
51,66
52,57
52,66
53,58
54,60
55,59
55,61
55,62
56,67
56,79
57,65
57,67
58,63
59,64
60,65
60,66
60,67
61,66
61,67
61,74
62,65
63,70
64,68
65,69
65,70
65,71
65,72
65,74
66,72
67,75
68,74
69,73
70,75
70,78
70,79
71,75
71,77
71,78
72,75
72,76
72,77
72,78
72,79
73,80
74,81
74,82
74,83
75,83
75,94
77,83
78,89
79,90
80,85
81,87
82,88
83,84
83,86
83,89
83,90
84,91
85,94
86,92
87,93
88,94
89,95
89,98
91,96
92,97
93,98
94,98
94,100
95,99

<end>
